100 10
397 513
382 374
718 241
209 493
373 697
649 670
742 598
756 165
553 581
168 169
506 382
727 333
466 630
122 358
450 118
900 175
542 501
106 302
480 363
154 661
82 533
621 126
411 783
534 608
453 664
531 526
440 134
578 609
622 843
469 104
375 359
667 140
477 388
330 548
527 562
386 583
711 107
131 293
715 416
618 688
464 737
259 177
775 744
366 158
826 836
598 380
229 389
409 322
661 829
885 892
541 488
172 139
214 139
311 574
267 334
321 485
481 192
678 663
261 410
285 64
295 320
527 538
189 347
784 920
479 479
573 735
618 418
317 384
378 300
885 859
176 427
535 243
879 161
714 453
143 371
146 416
78 232
831 590
915 321
519 254
197 599
226 333
369 655
414 195
505 574
270 102
466 403
234 299
280 200
330 389
220 154
778 918
770 548
697 357
826 756
472 222
209 549
100 676
485 353
555 630
